\ENCODING=ISO-8859-1
\Problem name: ilog.cplex

Minimize
 obj: 35.61 x0 + 40.15 x1 + 37.44 x2 + 42.88 x3 + 36.42 x4 + 32.54 x5
      + 47.84 x6 + 35.89 x7 + 48.37 x8 + 38.89 x9 + 33.53 x10 + 30.19 x11
      + 47.07 x12 + 34.79 x13 + 31.46 x14 + 32.51 x15 + 36.55 x16 + 40.87 x17
      + 46.74 x18 + 37.7 x19 + 132.15 x20 + 38.96 x21 + 5.09 x22 + 18.75 x23
      + 10.29 x24 + 15.66 x25 + 14.48 x26 + 17.89 x27 + 12.74 x28 + 6.29 x29
      + 153.62 x30 + 27.05 x31 + 5.13 x32 + 18.7 x33 + 13.56 x34 + 12.41 x35
      + 6.55 x36 + 10.66 x37 + 4.92 x38 + 16.73 x39 + 13.5 x40 + 14.89 x41
      + 0.71 x42 + 114.42 x43 + 37.81 x44 + 17.78 x45 + 15.81 x46 + 0.38 x47
      + 7.34 x48 + 2.23 x49 + 19.56 x50 + 11.84 x51 + 11.45 x52 + 10.08 x53
      + 4.14 x54 + 132.66 x55 + 30.11 x56 + 4 x57 + 17.11 x58 + 5.68 x59
      + 14.57 x60 + 17.41 x61 + 9.85 x62 + 5.74 x63 + 10.53 x64 + 16.16 x65
      + 120.59 x66 + 28.68 x67 + 3.39 x68 + 14.31 x69 + 1.33 x70 + 15.09 x71
      + 11.77 x72 + 6.88 x73 + 4.57 x74 + 19.74 x75 + 194.59 x76 + 25.13 x77
      + 15.79 x78 + 16.59 x79 + 4.82 x80 + 12.91 x81 + 17.87 x82 + 15.37 x83
      + 18.26 x84 + 4.97 x85 + 15.65 x86 + 17.45 x87 + 6.6 x88 + 152.37 x89
      + 34.12 x90 + 12.47 x91 + 16.63 x92 + 0.91 x93 + 6 x94 + 3.54 x95
      + 16.77 x96 + 3.11 x97 + 8.18 x98 + 176.21 x99 + 26.95 x100 + 15.68 x101
      + 17.27 x102 + 15.63 x103 + 7.11 x104 + 16.01 x105 + 2.22 x106
      + 10.93 x107 + 19.35 x108 + 15.22 x109 + 14.81 x110 + 199.09 x111
      + 29.75 x112 + 8.3 x113 + 3 x114 + 0.07 x115 + 16.48 x116 + 15.15 x117
      + 3.02 x118 + 13.91 x119 + 16.22 x120 + 5.74 x121 + 2.58 x122
      + 10.23 x123 + 166.61 x124 + 29.62 x125 + 17.67 x126 + 16.82 x127
      + 4.14 x128 + 5.4 x129 + 2.23 x130 + 7.21 x131 + 13.17 x132 + 1.25 x133
      + 6.56 x134 + 15.52 x135 + 115.77 x136 + 30.56 x137 + 1.12 x138
      + 7.35 x139 + 7.93 x140 + 3.7 x141 + 3.07 x142 + 2.65 x143 + 12.24 x144
      + 14.7 x145 + 5.62 x146 + 12.29 x147 + 8.15 x148 + 197.25 x149
      + 23.95 x150 + 5.2 x151 + 13.84 x152 + 0.73 x153 + 16.98 x154 + 5.43 x155
      + 17.83 x156 + 12.05 x157 + 13.63 x158 + 1.07 x159 + 1.84 x160
      + 199.65 x161 + 37.31 x162 + 0.2 x163 + 1.86 x164 + 9.1 x165 + 19.25 x166
      + 9.09 x167 + 1.88 x168 + 6.71 x169 + 18.91 x170 + 149.31 x171
      + 37.83 x172 + 10.6 x173 + 6.58 x174 + 14.53 x175 + 0.75 x176 + 4.38 x177
      + 12.32 x178 + 0.73 x179 + 8.76 x180 + 143.19 x181 + 34.66 x182
      + 11.7 x183 + 1.28 x184 + 18.79 x185 + 18.5 x186 + 11.06 x187
      + 19.25 x188 + 13.94 x189 + 4.45 x190 + 10.17 x191 + 18.33 x192
      + 14.34 x193 + 134.36 x194 + 25.73 x195 + 19.58 x196 + 11.35 x197
      + 17.52 x198 + 19.42 x199 + 18.01 x200 + 11.89 x201 + 14.12 x202
      + 19.82 x203 + 9.39 x204 + 10.67 x205 + 149.2 x206 + 37.93 x207
      + 0.13 x208 + 1.16 x209 + 11.13 x210 + 15.74 x211 + 6.68 x212 + 5.17 x213
      + 2.03 x214 + 7.31 x215 + 19.39 x216 + 3.02 x217 + 11.98 x218
      + 128.88 x219 + 38.89 x220 + 13.44 x221 + 13.86 x222 + 17.47 x223
      + 16.53 x224 + 14.39 x225 + 10.92 x226 + 0.71 x227 + 18.62 x228
      + 166.36 x229 + 22.32 x230 + 5.73 x231 + 5.27 x232 + 12.35 x233
      + 4.53 x234 + 2.45 x235 + 5.01 x236 + 15.79 x237 + 3.48 x238
      + 165.63 x239 + 28.42 x240 + 2.08 x241 + 14.18 x242 + 11.58 x243
      + 14.55 x244 + 17.01 x245 + 14.79 x246 + 9.75 x247 + 1.46 x248
      + 1.39 x249 + 1.29 y0 + 2.72 y1 + 3.04 y2 + 3.67 y3 + 5.37 y4 + 5.8 y5
      + 6.55 y6 + 13.3 y7 + 17.55 y8 + 17.59 y9 + 22.56 y10 + 133.3 y11
      + 1.63 y12 + 2.02 y13 + 2.25 y14 + 3.04 y15 + 8.04 y16 + 10.48 y17
      + 11.79 y18 + 12.35 y19 + 13.65 y20 + 15.32 y21 + 18.24 y22 + 30.08 y23
      + 143.83 y24 + y25 + 1.17 y26 + 2.83 y27 + 6.03 y28 + 8.2 y29 + 8.7 y30
      + 13.56 y31 + 16.47 y32 + 19.42 y33 + 37.86 y34 + 100.93 y35 + 1.2 y36
      + 2.33 y37 + 2.98 y38 + 6.6 y39 + 6.87 y40 + 10.17 y41 + 10.28 y42
      + 13.05 y43 + 17.41 y44 + 19.13 y45 + 34.83 y46 + 117.71 y47 + 2.61 y48
      + 2.85 y49 + 7.83 y50 + 13.01 y51 + 14.45 y52 + 16.49 y53 + 18.54 y54
      + 19.71 y55 + 24.14 y56 + 189.35 y57 + 0.88 y58 + 1.39 y59 + 3.28 y60
      + 9.82 y61 + 10.85 y62 + 11 y63 + 13.62 y64 + 14.05 y65 + 17.65 y66
      + 19.44 y67 + 27.35 y68 + 180.4 y69 + 0.82 y70 + 1.42 y71 + 5.17 y72
      + 8.63 y73 + 12.4 y74 + 16.14 y75 + 16.18 y76 + 16.63 y77 + 38.26 y78
      + 127.82 y79 + 0.37 y80 + 5.73 y81 + 8.44 y82 + 9.81 y83 + 10.76 y84
      + 12.08 y85 + 14.21 y86 + 18.45 y87 + 18.7 y88 + 19.91 y89 + 28.61 y90
      + 157.08 y91 + 1.16 y92 + 1.42 y93 + 2.69 y94 + 4.56 y95 + 6.97 y96
      + 8.22 y97 + 8.88 y98 + 12.36 y99 + 17.08 y100 + 19.93 y101 + 22.91 y102
      + 154.92 y103 + 2.19 y104 + 6.89 y105 + 8.47 y106 + 9.33 y107 + 9.58 y108
      + 9.9 y109 + 10.25 y110 + 11.74 y111 + 14.33 y112 + 18.29 y113
      + 21.55 y114 + 168.58 y115 + 0.29 y116 + 4.51 y117 + 5.12 y118
      + 5.39 y119 + 12.57 y120 + 13.62 y121 + 13.93 y122 + 15.34 y123
      + 16.62 y124 + 17.82 y125 + 22.55 y126 + 179.87 y127 + 6.5 y128
      + 8.02 y129 + 14.53 y130 + 17.15 y131 + 17.83 y132 + 18.75 y133
      + 19.74 y134 + 19.93 y135 + 35.73 y136 + 173.71 y137 + 4.77 y138
      + 6.55 y139 + 7.92 y140 + 8.98 y141 + 9.04 y142 + 11.68 y143 + 13 y144
      + 13.38 y145 + 15.84 y146 + 27.76 y147 + 172.18 y148 + 2.67 y149
      + 2.91 y150 + 3.45 y151 + 3.62 y152 + 4.2 y153 + 7.91 y154 + 9.71 y155
      + 13.85 y156 + 16.25 y157 + 16.4 y158 + 18.62 y159 + 21.74 y160
      + 112.37 y161 + 1.08 y162 + 1.36 y163 + 6.33 y164 + 10.05 y165
      + 12.49 y166 + 12.57 y167 + 13.54 y168 + 14.23 y169 + 15.61 y170
      + 15.63 y171 + 19.53 y172 + 36.53 y173 + 157.87 y174 + 6.85 y175
      + 7.65 y176 + 8.14 y177 + 8.57 y178 + 11.44 y179 + 12.61 y180
      + 17.15 y181 + 17.42 y182 + 19.94 y183 + 29.89 y184 + 129.48 y185
      + 1.09 y186 + 1.87 y187 + 2.11 y188 + 4.88 y189 + 4.97 y190 + 5.21 y191
      + 12.33 y192 + 12.36 y193 + 13.63 y194 + 15.52 y195 + 17.19 y196
      + 24.92 y197 + 186.45 y198 + 1.15 y199 + 7.73 y200 + 8.22 y201 + 9.1 y202
      + 9.47 y203 + 9.85 y204 + 10.18 y205 + 12.12 y206 + 15.33 y207
      + 15.59 y208 + 15.79 y209 + 22.81 y210 + 127.69 y211 + 0.44 y212
      + 4.47 y213 + 10.76 y214 + 12.08 y215 + 12.41 y216 + 13.32 y217
      + 15.33 y218 + 17.14 y219 + 18.32 y220 + 22.19 y221 + 133.75 y222
      + 0.97 y223 + 2.2 y224 + 2.6 y225 + 4.97 y226 + 6.81 y227 + 8.75 y228
      + 9.43 y229 + 18.05 y230 + 18.54 y231 + 21.87 y232 + 121.25 y233
Subject To
 N22:      x20 + x21 + x22 + x23 + x24 + x25 + x26 + x27 + x28 + x29
            = 10.0363012310657
 N23:      x30 + x31 + x32 + x33 + x34 + x35 + x36 + x37 + x38 + x39 + x40
           + x41 + x42  = 23.0214081202612
 N24:      x43 + x44 + x45 + x46 + x47 + x48 + x49 + x50 + x51 + x52 + x53
           + x54  = 23
 N25:      x55 + x56 + x57 + x58 + x59 + x60 + x61 + x62 + x63 + x64 + x65
            = 17
 N26:      x66 + x67 + x68 + x69 + x70 + x71 + x72 + x73 + x74 + x75  = 22
 N27:      x76 + x77 + x78 + x79 + x80 + x81 + x82 + x83 + x84 + x85 + x86
           + x87 + x88  = 12.7372534496548
 N28:      x89 + x90 + x91 + x92 + x93 + x94 + x95 + x96 + x97 + x98  = 18
 N29:      x99 + x100 + x101 + x102 + x103 + x104 + x105 + x106 + x107 + x108
           + x109 + x110  = 8.41940054765954
 N30:      x111 + x112 + x113 + x114 + x115 + x116 + x117 + x118 + x119 + x120
           + x121 + x122 + x123  = 37
 N31:      x124 + x125 + x126 + x127 + x128 + x129 + x130 + x131 + x132 + x133
           + x134 + x135  = 33.3127276151974
 N32:      x136 + x137 + x138 + x139 + x140 + x141 + x142 + x143 + x144 + x145
           + x146 + x147 + x148  = 23
 N33:      x149 + x150 + x151 + x152 + x153 + x154 + x155 + x156 + x157 + x158
           + x159 + x160  = 11.2498485637257
 N34:      x161 + x162 + x163 + x164 + x165 + x166 + x167 + x168 + x169 + x170
            = 24.5813346452367
 N35:      x171 + x172 + x173 + x174 + x175 + x176 + x177 + x178 + x179 + x180
            = 28.0162390898859
 N36:      x181 + x182 + x183 + x184 + x185 + x186 + x187 + x188 + x189 + x190
           + x191 + x192 + x193  = 11.0337550221449
 N37:      x194 + x195 + x196 + x197 + x198 + x199 + x200 + x201 + x202 + x203
           + x204 + x205  = 4.29867891190234
 N38:      x206 + x207 + x208 + x209 + x210 + x211 + x212 + x213 + x214 + x215
           + x216 + x217 + x218  = 17.0301517671521
 N39:      x219 + x220 + x221 + x222 + x223 + x224 + x225 + x226 + x227 + x228
            = 7
 N40:      x229 + x230 + x231 + x232 + x233 + x234 + x235 + x236 + x237 + x238
            = 20.2629010361138
 N41:      x239 + x240 + x241 + x242 + x243 + x244 + x245 + x246 + x247 + x248
           + x249  = 7
 N43:      x0 + x21 + x78 + x115 + x140 + x189 + x224 + x236 + x242 - y0 - y1
           - y2 - y3 - y4 - y5 - y6 - y7 - y8 - y9 - y10 - y11  = 0
 N44:      x1 + x31 + x82 + x147 + x152 - y12 - y13 - y14 - y15 - y16 - y17
           - y18 - y19 - y20 - y21 - y22 - y23 - y24  = 0
 N45:      x2 + x29 + x44 + x63 + x187 + x193 - y25 - y26 - y27 - y28 - y29
           - y30 - y31 - y32 - y33 - y34 - y35  = 0
 N46:      x3 + x56 + x94 + x98 + x108 + x130 + x131 + x157 + x214 + x216
           + x232 + x248 - y36 - y37 - y38 - y39 - y40 - y41 - y42 - y43 - y44
           - y45 - y46 - y47  = 0
 N47:      x4 + x39 + x59 + x67 + x84 + x103 + x105 + x143 + x179 + x204 + x223
           + x237 - y48 - y49 - y50 - y51 - y52 - y53 - y54 - y55 - y56 - y57
            = 0
 N48:      x5 + x23 + x52 + x77 + x110 + x142 + x144 + x159 + x165 + x227
           + x245 - y58 - y59 - y60 - y61 - y62 - y63 - y64 - y65 - y66 - y67
           - y68 - y69  = 0
 N49:      x6 + x24 + x60 + x90 + x129 + x168 + x177 + x241 - y70 - y71 - y72
           - y73 - y74 - y75 - y76 - y77 - y78 - y79  = 0
 N50:      x7 + x50 + x53 + x70 + x88 + x92 + x100 + x116 + x122 + x133 + x190
           + x199 + x202 + x228 + x231 + x235 + x246 - y80 - y81 - y82 - y83
           - y84 - y85 - y86 - y87 - y88 - y89 - y90 - y91  = 0
 N51:      x8 + x38 + x61 + x83 + x109 + x112 + x126 + x151 + x167 + x170
           + x173 + x184 + x197 + x225 + x238 - y92 - y93 - y94 - y95 - y96
           - y97 - y98 - y99 - y100 - y101 - y102 - y103  = 0
 N52:      x9 + x27 + x40 + x64 + x125 + x141 + x154 + x156 + x198 + x221
           - y104 - y105 - y106 - y107 - y108 - y109 - y110 - y111 - y112
           - y113 - y114 - y115  = 0
 N53:      x10 + x37 + x71 + x79 + x86 + x137 + x163 + x178 - y116 - y117
           - y118 - y119 - y120 - y121 - y122 - y123 - y124 - y125 - y126
           - y127  = 0
 N54:      x11 + x22 + x34 + x36 + x48 + x87 + x91 + x150 + x176 + x180 + x188
           + x196 + x212 + x213 + x218 - y128 - y129 - y130 - y131 - y132
           - y133 - y134 - y135 - y136 - y137  = 0
 N55:      x12 + x33 + x46 + x127 + x135 + x155 + x162 + x191 + x201 + x215
           - y138 - y139 - y140 - y141 - y142 - y143 - y144 - y145 - y146
           - y147 - y148  = 0
 N56:      x13 + x32 + x74 + x113 + x114 + x117 + x138 + x172 + x185 + x200
           + x234 + x244 - y149 - y150 - y151 - y152 - y153 - y154 - y155
           - y156 - y157 - y158 - y159 - y160 - y161  = 0
 N57:      x14 + x35 + x45 + x65 + x80 + x93 + x95 + x102 + x123 + x128 + x145
           + x148 + x153 + x182 + x210 + x211 + x217 + x247 + x249 - y162
           - y163 - y164 - y165 - y166 - y167 - y168 - y169 - y170 - y171
           - y172 - y173 - y174  = 0
 N58:      x15 + x26 + x58 + x62 + x68 + x73 + x81 + x106 + x121 + x134 + x174
           + x175 + x183 + x195 + x209 + x243 - y175 - y176 - y177 - y178
           - y179 - y180 - y181 - y182 - y183 - y184 - y185  = 0
 N59:      x16 + x57 + x97 + x107 + x158 + x169 + x207 + x226 + x233 - y186
           - y187 - y188 - y189 - y190 - y191 - y192 - y193 - y194 - y195
           - y196 - y197 - y198  = 0
 N60:      x17 + x25 + x41 + x42 + x51 + x54 + x69 + x72 + x104 + x118 + x205
           + x208 + x220 - y199 - y200 - y201 - y202 - y203 - y204 - y205
           - y206 - y207 - y208 - y209 - y210 - y211  = 0
 N61:      x18 + x28 + x49 + x75 + x119 + x120 + x139 + x160 + x164 + x166
           + x186 + x192 + x203 + x230 - y212 - y213 - y214 - y215 - y216
           - y217 - y218 - y219 - y220 - y221 - y222  = 0
 N62:      x19 + x47 + x85 + x96 + x101 + x132 + x146 + x222 + x240 - y223
           - y224 - y225 - y226 - y227 - y228 - y229 - y230 - y231 - y232
           - y233  = 0
 Y1_1_0:   y0 <= 6
 Y1_1_1:   y1 <= 8
 Y1_1_2:   y2 <= 7
 Y1_1_3:   y3 <= 7
 Y1_1_4:   y4 <= 7
 Y1_1_5:   y5 <= 8
 Y1_1_6:   y6 <= 8
 Y1_1_7:   y7 <= 7
 Y1_1_8:   y8 <= 7
 Y1_1_9:   y9 <= 5
 Y1_1_10:  y10 <= 7
 Y1_1_11:  y11 <= 1000
 Y1_2_0:   y12 <= 8
 Y1_2_1:   y13 <= 5
 Y1_2_2:   y14 <= 5
 Y1_2_3:   y15 <= 7
 Y1_2_4:   y16 <= 5
 Y1_2_5:   y17 <= 8
 Y1_2_6:   y18 <= 6
 Y1_2_7:   y19 <= 7
 Y1_2_8:   y20 <= 7
 Y1_2_9:   y21 <= 7
 Y1_2_10:  y22 <= 8
 Y1_2_11:  y23 <= 5
 Y1_2_12:  y24 <= 1000
 Y1_3_0:   y25 <= 5
 Y1_3_1:   y26 <= 9
 Y1_3_2:   y27 <= 9
 Y1_3_3:   y28 <= 8
 Y1_3_4:   y29 <= 5
 Y1_3_5:   y30 <= 9
 Y1_3_6:   y31 <= 6
 Y1_3_7:   y32 <= 5
 Y1_3_8:   y33 <= 9
 Y1_3_9:   y34 <= 9
 Y1_3_10:  y35 <= 1000
 Y1_4_0:   y36 <= 9
 Y1_4_1:   y37 <= 9
 Y1_4_2:   y38 <= 9
 Y1_4_3:   y39 <= 6
 Y1_4_4:   y40 <= 9
 Y1_4_5:   y41 <= 9
 Y1_4_6:   y42 <= 7
 Y1_4_7:   y43 <= 5
 Y1_4_8:   y44 <= 7
 Y1_4_9:   y45 <= 5
 Y1_4_10:  y46 <= 5
 Y1_4_11:  y47 <= 1000
 Y1_5_0:   y48 <= 6
 Y1_5_1:   y49 <= 7
 Y1_5_2:   y50 <= 5
 Y1_5_3:   y51 <= 6
 Y1_5_4:   y52 <= 7
 Y1_5_5:   y53 <= 8
 Y1_5_6:   y54 <= 5
 Y1_5_7:   y55 <= 9
 Y1_5_8:   y56 <= 6
 Y1_5_9:   y57 <= 1000
 Y1_6_0:   y58 <= 5
 Y1_6_1:   y59 <= 7
 Y1_6_2:   y60 <= 8
 Y1_6_3:   y61 <= 9
 Y1_6_4:   y62 <= 9
 Y1_6_5:   y63 <= 8
 Y1_6_6:   y64 <= 8
 Y1_6_7:   y65 <= 6
 Y1_6_8:   y66 <= 6
 Y1_6_9:   y67 <= 9
 Y1_6_10:  y68 <= 7
 Y1_6_11:  y69 <= 1000
 Y1_7_0:   y70 <= 7
 Y1_7_1:   y71 <= 5
 Y1_7_2:   y72 <= 5
 Y1_7_3:   y73 <= 6
 Y1_7_4:   y74 <= 9
 Y1_7_5:   y75 <= 7
 Y1_7_6:   y76 <= 8
 Y1_7_7:   y77 <= 9
 Y1_7_8:   y78 <= 8
 Y1_7_9:   y79 <= 1000
 Y1_8_0:   y80 <= 7
 Y1_8_1:   y81 <= 6
 Y1_8_2:   y82 <= 5
 Y1_8_3:   y83 <= 6
 Y1_8_4:   y84 <= 6
 Y1_8_5:   y85 <= 8
 Y1_8_6:   y86 <= 7
 Y1_8_7:   y87 <= 5
 Y1_8_8:   y88 <= 8
 Y1_8_9:   y89 <= 5
 Y1_8_10:  y90 <= 8
 Y1_8_11:  y91 <= 1000
 Y1_9_0:   y92 <= 6
 Y1_9_1:   y93 <= 7
 Y1_9_2:   y94 <= 5
 Y1_9_3:   y95 <= 5
 Y1_9_4:   y96 <= 9
 Y1_9_5:   y97 <= 9
 Y1_9_6:   y98 <= 8
 Y1_9_7:   y99 <= 9
 Y1_9_8:   y100 <= 6
 Y1_9_9:   y101 <= 8
 Y1_9_10:  y102 <= 9
 Y1_9_11:  y103 <= 1000
 Y1_10_0:  y104 <= 6
 Y1_10_1:  y105 <= 5
 Y1_10_2:  y106 <= 6
 Y1_10_3:  y107 <= 8
 Y1_10_4:  y108 <= 6
 Y1_10_5:  y109 <= 9
 Y1_10_6:  y110 <= 8
 Y1_10_7:  y111 <= 6
 Y1_10_8:  y112 <= 9
 Y1_10_9:  y113 <= 5
 Y1_10_10: y114 <= 9
 Y1_10_11: y115 <= 1000
 Y1_11_0:  y116 <= 9
 Y1_11_1:  y117 <= 5
 Y1_11_2:  y118 <= 9
 Y1_11_3:  y119 <= 9
 Y1_11_4:  y120 <= 6
 Y1_11_5:  y121 <= 8
 Y1_11_6:  y122 <= 6
 Y1_11_7:  y123 <= 5
 Y1_11_8:  y124 <= 7
 Y1_11_9:  y125 <= 5
 Y1_11_10: y126 <= 7
 Y1_11_11: y127 <= 1000
 Y1_12_0:  y128 <= 6
 Y1_12_1:  y129 <= 7
 Y1_12_2:  y130 <= 6
 Y1_12_3:  y131 <= 9
 Y1_12_4:  y132 <= 6
 Y1_12_5:  y133 <= 8
 Y1_12_6:  y134 <= 9
 Y1_12_7:  y135 <= 6
 Y1_12_8:  y136 <= 8
 Y1_12_9:  y137 <= 1000
 Y1_13_0:  y138 <= 9
 Y1_13_1:  y139 <= 5
 Y1_13_2:  y140 <= 5
 Y1_13_3:  y141 <= 5
 Y1_13_4:  y142 <= 9
 Y1_13_5:  y143 <= 7
 Y1_13_6:  y144 <= 8
 Y1_13_7:  y145 <= 5
 Y1_13_8:  y146 <= 5
 Y1_13_9:  y147 <= 6
 Y1_13_10: y148 <= 1000
 Y1_14_0:  y149 <= 8
 Y1_14_1:  y150 <= 9
 Y1_14_2:  y151 <= 9
 Y1_14_3:  y152 <= 8
 Y1_14_4:  y153 <= 8
 Y1_14_5:  y154 <= 5
 Y1_14_6:  y155 <= 8
 Y1_14_7:  y156 <= 9
 Y1_14_8:  y157 <= 7
 Y1_14_9:  y158 <= 6
 Y1_14_10: y159 <= 9
 Y1_14_11: y160 <= 7
 Y1_14_12: y161 <= 1000
 Y1_15_0:  y162 <= 5
 Y1_15_1:  y163 <= 6
 Y1_15_2:  y164 <= 6
 Y1_15_3:  y165 <= 5
 Y1_15_4:  y166 <= 6
 Y1_15_5:  y167 <= 5
 Y1_15_6:  y168 <= 7
 Y1_15_7:  y169 <= 7
 Y1_15_8:  y170 <= 8
 Y1_15_9:  y171 <= 7
 Y1_15_10: y172 <= 7
 Y1_15_11: y173 <= 6
 Y1_15_12: y174 <= 1000
 Y1_16_0:  y175 <= 5
 Y1_16_1:  y176 <= 5
 Y1_16_2:  y177 <= 5
 Y1_16_3:  y178 <= 8
 Y1_16_4:  y179 <= 9
 Y1_16_5:  y180 <= 6
 Y1_16_6:  y181 <= 5
 Y1_16_7:  y182 <= 7
 Y1_16_8:  y183 <= 8
 Y1_16_9:  y184 <= 7
 Y1_16_10: y185 <= 1000
 Y1_17_0:  y186 <= 7
 Y1_17_1:  y187 <= 6
 Y1_17_2:  y188 <= 8
 Y1_17_3:  y189 <= 8
 Y1_17_4:  y190 <= 5
 Y1_17_5:  y191 <= 7
 Y1_17_6:  y192 <= 7
 Y1_17_7:  y193 <= 7
 Y1_17_8:  y194 <= 8
 Y1_17_9:  y195 <= 5
 Y1_17_10: y196 <= 7
 Y1_17_11: y197 <= 8
 Y1_17_12: y198 <= 1000
 Y1_18_0:  y199 <= 5
 Y1_18_1:  y200 <= 9
 Y1_18_2:  y201 <= 5
 Y1_18_3:  y202 <= 7
 Y1_18_4:  y203 <= 6
 Y1_18_5:  y204 <= 9
 Y1_18_6:  y205 <= 7
 Y1_18_7:  y206 <= 5
 Y1_18_8:  y207 <= 5
 Y1_18_9:  y208 <= 7
 Y1_18_10: y209 <= 9
 Y1_18_11: y210 <= 6
 Y1_18_12: y211 <= 1000
 Y1_19_0:  y212 <= 9
 Y1_19_1:  y213 <= 6
 Y1_19_2:  y214 <= 8
 Y1_19_3:  y215 <= 6
 Y1_19_4:  y216 <= 5
 Y1_19_5:  y217 <= 7
 Y1_19_6:  y218 <= 8
 Y1_19_7:  y219 <= 7
 Y1_19_8:  y220 <= 5
 Y1_19_9:  y221 <= 6
 Y1_19_10: y222 <= 1000
 Y1_20_0:  y223 <= 9
 Y1_20_1:  y224 <= 8
 Y1_20_2:  y225 <= 8
 Y1_20_3:  y226 <= 7
 Y1_20_4:  y227 <= 5
 Y1_20_5:  y228 <= 8
 Y1_20_6:  y229 <= 8
 Y1_20_7:  y230 <= 9
 Y1_20_8:  y231 <= 5
 Y1_20_9:  y232 <= 6
 Y1_20_10: y233 <= 1000
Bounds
 0 <= x0 <= 1000
 0 <= x1 <= 1000
 0 <= x2 <= 1000
 0 <= x3 <= 1000
 0 <= x4 <= 1000
 0 <= x5 <= 1000
 0 <= x6 <= 1000
 0 <= x7 <= 1000
 0 <= x8 <= 1000
 0 <= x9 <= 1000
 0 <= x10 <= 1000
 0 <= x11 <= 1000
 0 <= x12 <= 1000
 0 <= x13 <= 1000
 0 <= x14 <= 1000
 0 <= x15 <= 1000
 0 <= x16 <= 1000
 0 <= x17 <= 1000
 0 <= x18 <= 1000
 0 <= x19 <= 1000
 0 <= x20 <= 1000
 0 <= x21 <= 8
 0 <= x22 <= 9
 0 <= x23 <= 5
 0 <= x24 <= 5
 0 <= x25 <= 7
 0 <= x26 <= 9
 0 <= x27 <= 8
 0 <= x28 <= 9
 0 <= x29 <= 6
 0 <= x30 <= 1000
 0 <= x31 <= 8
 0 <= x32 <= 8
 0 <= x33 <= 7
 0 <= x34 <= 5
 0 <= x35 <= 8
 0 <= x36 <= 6
 0 <= x37 <= 9
 0 <= x38 <= 9
 0 <= x39 <= 7
 0 <= x40 <= 6
 0 <= x41 <= 6
 0 <= x42 <= 8
 0 <= x43 <= 1000
 0 <= x44 <= 5
 0 <= x45 <= 6
 0 <= x46 <= 7
 0 <= x47 <= 9
 0 <= x48 <= 5
 0 <= x49 <= 8
 0 <= x50 <= 9
 0 <= x51 <= 8
 0 <= x52 <= 5
 0 <= x53 <= 6
 0 <= x54 <= 6
 0 <= x55 <= 1000
 0 <= x56 <= 7
 0 <= x57 <= 5
 0 <= x58 <= 7
 0 <= x59 <= 8
 0 <= x60 <= 9
 0 <= x61 <= 5
 0 <= x62 <= 8
 0 <= x63 <= 6
 0 <= x64 <= 6
 0 <= x65 <= 8
 0 <= x66 <= 1000
 0 <= x67 <= 9
 0 <= x68 <= 8
 0 <= x69 <= 8
 0 <= x70 <= 6
 0 <= x71 <= 9
 0 <= x72 <= 7
 0 <= x73 <= 9
 0 <= x74 <= 8
 0 <= x75 <= 9
 0 <= x76 <= 1000
 0 <= x77 <= 5
 0 <= x78 <= 9
 0 <= x79 <= 6
 0 <= x80 <= 9
 0 <= x81 <= 7
 0 <= x82 <= 8
 0 <= x83 <= 7
 0 <= x84 <= 7
 0 <= x85 <= 7
 0 <= x86 <= 5
 0 <= x87 <= 6
 0 <= x88 <= 9
 0 <= x89 <= 1000
 0 <= x90 <= 5
 0 <= x91 <= 5
 0 <= x92 <= 6
 0 <= x93 <= 7
 0 <= x94 <= 6
 0 <= x95 <= 5
 0 <= x96 <= 5
 0 <= x97 <= 8
 0 <= x98 <= 9
 0 <= x99 <= 1000
 0 <= x100 <= 6
 0 <= x101 <= 7
 0 <= x102 <= 7
 0 <= x103 <= 5
 0 <= x104 <= 6
 0 <= x105 <= 9
 0 <= x106 <= 7
 0 <= x107 <= 7
 0 <= x108 <= 7
 0 <= x109 <= 7
 0 <= x110 <= 7
 0 <= x111 <= 1000
 0 <= x112 <= 5
 0 <= x113 <= 6
 0 <= x114 <= 5
 0 <= x115 <= 8
 0 <= x116 <= 9
 0 <= x117 <= 9
 0 <= x118 <= 6
 0 <= x119 <= 7
 0 <= x120 <= 9
 0 <= x121 <= 5
 0 <= x122 <= 7
 0 <= x123 <= 5
 0 <= x124 <= 1000
 0 <= x125 <= 7
 0 <= x126 <= 9
 0 <= x127 <= 5
 0 <= x128 <= 9
 0 <= x129 <= 5
 0 <= x130 <= 9
 0 <= x131 <= 5
 0 <= x132 <= 7
 0 <= x133 <= 5
 0 <= x134 <= 7
 0 <= x135 <= 7
 0 <= x136 <= 1000
 0 <= x137 <= 6
 0 <= x138 <= 8
 0 <= x139 <= 9
 0 <= x140 <= 9
 0 <= x141 <= 8
 0 <= x142 <= 9
 0 <= x143 <= 9
 0 <= x144 <= 7
 0 <= x145 <= 7
 0 <= x146 <= 6
 0 <= x147 <= 5
 0 <= x148 <= 7
 0 <= x149 <= 1000
 0 <= x150 <= 8
 0 <= x151 <= 5
 0 <= x152 <= 8
 0 <= x153 <= 6
 0 <= x154 <= 6
 0 <= x155 <= 5
 0 <= x156 <= 7
 0 <= x157 <= 9
 0 <= x158 <= 8
 0 <= x159 <= 8
 0 <= x160 <= 5
 0 <= x161 <= 1000
 0 <= x162 <= 7
 0 <= x163 <= 6
 0 <= x164 <= 9
 0 <= x165 <= 6
 0 <= x166 <= 9
 0 <= x167 <= 9
 0 <= x168 <= 5
 0 <= x169 <= 8
 0 <= x170 <= 9
 0 <= x171 <= 1000
 0 <= x172 <= 8
 0 <= x173 <= 5
 0 <= x174 <= 9
 0 <= x175 <= 5
 0 <= x176 <= 9
 0 <= x177 <= 7
 0 <= x178 <= 6
 0 <= x179 <= 9
 0 <= x180 <= 6
 0 <= x181 <= 1000
 0 <= x182 <= 9
 0 <= x183 <= 6
 0 <= x184 <= 9
 0 <= x185 <= 7
 0 <= x186 <= 8
 0 <= x187 <= 5
 0 <= x188 <= 7
 0 <= x189 <= 7
 0 <= x190 <= 9
 0 <= x191 <= 7
 0 <= x192 <= 6
 0 <= x193 <= 7
 0 <= x194 <= 1000
 0 <= x195 <= 9
 0 <= x196 <= 6
 0 <= x197 <= 6
 0 <= x198 <= 7
 0 <= x199 <= 6
 0 <= x200 <= 8
 0 <= x201 <= 6
 0 <= x202 <= 8
 0 <= x203 <= 5
 0 <= x204 <= 5
 0 <= x205 <= 8
 0 <= x206 <= 1000
 0 <= x207 <= 8
 0 <= x208 <= 8
 0 <= x209 <= 7
 0 <= x210 <= 5
 0 <= x211 <= 8
 0 <= x212 <= 5
 0 <= x213 <= 6
 0 <= x214 <= 6
 0 <= x215 <= 9
 0 <= x216 <= 5
 0 <= x217 <= 9
 0 <= x218 <= 7
 0 <= x219 <= 1000
 0 <= x220 <= 8
 0 <= x221 <= 7
 0 <= x222 <= 8
 0 <= x223 <= 5
 0 <= x224 <= 7
 0 <= x225 <= 9
 0 <= x226 <= 6
 0 <= x227 <= 7
 0 <= x228 <= 9
 0 <= x229 <= 1000
 0 <= x230 <= 5
 0 <= x231 <= 6
 0 <= x232 <= 8
 0 <= x233 <= 9
 0 <= x234 <= 6
 0 <= x235 <= 7
 0 <= x236 <= 9
 0 <= x237 <= 5
 0 <= x238 <= 5
 0 <= x239 <= 1000
 0 <= x240 <= 7
 0 <= x241 <= 7
 0 <= x242 <= 6
 0 <= x243 <= 8
 0 <= x244 <= 5
 0 <= x245 <= 8
 0 <= x246 <= 8
 0 <= x247 <= 9
 0 <= x248 <= 7
 0 <= x249 <= 9
 0 <= y0 <= 1001
 0 <= y1 <= 1001
 0 <= y2 <= 1001
 0 <= y3 <= 1001
 0 <= y4 <= 1001
 0 <= y5 <= 1001
 0 <= y6 <= 1001
 0 <= y7 <= 1001
 0 <= y8 <= 1001
 0 <= y9 <= 1001
 0 <= y10 <= 1001
 0 <= y11 <= 1001
 0 <= y12 <= 1001
 0 <= y13 <= 1001
 0 <= y14 <= 1001
 0 <= y15 <= 1001
 0 <= y16 <= 1001
 0 <= y17 <= 1001
 0 <= y18 <= 1001
 0 <= y19 <= 1001
 0 <= y20 <= 1001
 0 <= y21 <= 1001
 0 <= y22 <= 1001
 0 <= y23 <= 1001
 0 <= y24 <= 1001
 0 <= y25 <= 1001
 0 <= y26 <= 1001
 0 <= y27 <= 1001
 0 <= y28 <= 1001
 0 <= y29 <= 1001
 0 <= y30 <= 1001
 0 <= y31 <= 1001
 0 <= y32 <= 1001
 0 <= y33 <= 1001
 0 <= y34 <= 1001
 0 <= y35 <= 1001
 0 <= y36 <= 1001
 0 <= y37 <= 1001
 0 <= y38 <= 1001
 0 <= y39 <= 1001
 0 <= y40 <= 1001
 0 <= y41 <= 1001
 0 <= y42 <= 1001
 0 <= y43 <= 1001
 0 <= y44 <= 1001
 0 <= y45 <= 1001
 0 <= y46 <= 1001
 0 <= y47 <= 1001
 0 <= y48 <= 1001
 0 <= y49 <= 1001
 0 <= y50 <= 1001
 0 <= y51 <= 1001
 0 <= y52 <= 1001
 0 <= y53 <= 1001
 0 <= y54 <= 1001
 0 <= y55 <= 1001
 0 <= y56 <= 1001
 0 <= y57 <= 1001
 0 <= y58 <= 1001
 0 <= y59 <= 1001
 0 <= y60 <= 1001
 0 <= y61 <= 1001
 0 <= y62 <= 1001
 0 <= y63 <= 1001
 0 <= y64 <= 1001
 0 <= y65 <= 1001
 0 <= y66 <= 1001
 0 <= y67 <= 1001
 0 <= y68 <= 1001
 0 <= y69 <= 1001
 0 <= y70 <= 1001
 0 <= y71 <= 1001
 0 <= y72 <= 1001
 0 <= y73 <= 1001
 0 <= y74 <= 1001
 0 <= y75 <= 1001
 0 <= y76 <= 1001
 0 <= y77 <= 1001
 0 <= y78 <= 1001
 0 <= y79 <= 1001
 0 <= y80 <= 1001
 0 <= y81 <= 1001
 0 <= y82 <= 1001
 0 <= y83 <= 1001
 0 <= y84 <= 1001
 0 <= y85 <= 1001
 0 <= y86 <= 1001
 0 <= y87 <= 1001
 0 <= y88 <= 1001
 0 <= y89 <= 1001
 0 <= y90 <= 1001
 0 <= y91 <= 1001
 0 <= y92 <= 1001
 0 <= y93 <= 1001
 0 <= y94 <= 1001
 0 <= y95 <= 1001
 0 <= y96 <= 1001
 0 <= y97 <= 1001
 0 <= y98 <= 1001
 0 <= y99 <= 1001
 0 <= y100 <= 1001
 0 <= y101 <= 1001
 0 <= y102 <= 1001
 0 <= y103 <= 1001
 0 <= y104 <= 1001
 0 <= y105 <= 1001
 0 <= y106 <= 1001
 0 <= y107 <= 1001
 0 <= y108 <= 1001
 0 <= y109 <= 1001
 0 <= y110 <= 1001
 0 <= y111 <= 1001
 0 <= y112 <= 1001
 0 <= y113 <= 1001
 0 <= y114 <= 1001
 0 <= y115 <= 1001
 0 <= y116 <= 1001
 0 <= y117 <= 1001
 0 <= y118 <= 1001
 0 <= y119 <= 1001
 0 <= y120 <= 1001
 0 <= y121 <= 1001
 0 <= y122 <= 1001
 0 <= y123 <= 1001
 0 <= y124 <= 1001
 0 <= y125 <= 1001
 0 <= y126 <= 1001
 0 <= y127 <= 1001
 0 <= y128 <= 1001
 0 <= y129 <= 1001
 0 <= y130 <= 1001
 0 <= y131 <= 1001
 0 <= y132 <= 1001
 0 <= y133 <= 1001
 0 <= y134 <= 1001
 0 <= y135 <= 1001
 0 <= y136 <= 1001
 0 <= y137 <= 1001
 0 <= y138 <= 1001
 0 <= y139 <= 1001
 0 <= y140 <= 1001
 0 <= y141 <= 1001
 0 <= y142 <= 1001
 0 <= y143 <= 1001
 0 <= y144 <= 1001
 0 <= y145 <= 1001
 0 <= y146 <= 1001
 0 <= y147 <= 1001
 0 <= y148 <= 1001
 0 <= y149 <= 1001
 0 <= y150 <= 1001
 0 <= y151 <= 1001
 0 <= y152 <= 1001
 0 <= y153 <= 1001
 0 <= y154 <= 1001
 0 <= y155 <= 1001
 0 <= y156 <= 1001
 0 <= y157 <= 1001
 0 <= y158 <= 1001
 0 <= y159 <= 1001
 0 <= y160 <= 1001
 0 <= y161 <= 1001
 0 <= y162 <= 1001
 0 <= y163 <= 1001
 0 <= y164 <= 1001
 0 <= y165 <= 1001
 0 <= y166 <= 1001
 0 <= y167 <= 1001
 0 <= y168 <= 1001
 0 <= y169 <= 1001
 0 <= y170 <= 1001
 0 <= y171 <= 1001
 0 <= y172 <= 1001
 0 <= y173 <= 1001
 0 <= y174 <= 1001
 0 <= y175 <= 1001
 0 <= y176 <= 1001
 0 <= y177 <= 1001
 0 <= y178 <= 1001
 0 <= y179 <= 1001
 0 <= y180 <= 1001
 0 <= y181 <= 1001
 0 <= y182 <= 1001
 0 <= y183 <= 1001
 0 <= y184 <= 1001
 0 <= y185 <= 1001
 0 <= y186 <= 1001
 0 <= y187 <= 1001
 0 <= y188 <= 1001
 0 <= y189 <= 1001
 0 <= y190 <= 1001
 0 <= y191 <= 1001
 0 <= y192 <= 1001
 0 <= y193 <= 1001
 0 <= y194 <= 1001
 0 <= y195 <= 1001
 0 <= y196 <= 1001
 0 <= y197 <= 1001
 0 <= y198 <= 1001
 0 <= y199 <= 1001
 0 <= y200 <= 1001
 0 <= y201 <= 1001
 0 <= y202 <= 1001
 0 <= y203 <= 1001
 0 <= y204 <= 1001
 0 <= y205 <= 1001
 0 <= y206 <= 1001
 0 <= y207 <= 1001
 0 <= y208 <= 1001
 0 <= y209 <= 1001
 0 <= y210 <= 1001
 0 <= y211 <= 1001
 0 <= y212 <= 1001
 0 <= y213 <= 1001
 0 <= y214 <= 1001
 0 <= y215 <= 1001
 0 <= y216 <= 1001
 0 <= y217 <= 1001
 0 <= y218 <= 1001
 0 <= y219 <= 1001
 0 <= y220 <= 1001
 0 <= y221 <= 1001
 0 <= y222 <= 1001
 0 <= y223 <= 1001
 0 <= y224 <= 1001
 0 <= y225 <= 1001
 0 <= y226 <= 1001
 0 <= y227 <= 1001
 0 <= y228 <= 1001
 0 <= y229 <= 1001
 0 <= y230 <= 1001
 0 <= y231 <= 1001
 0 <= y232 <= 1001
 0 <= y233 <= 1001
End
